(set-info :smt-lib-version 2.6)
(set-logic LIA)
(set-info
  :source |
 Generated by PSyCO 0.1
 More info in N. P. Lopes and J. Monteiro. Weakest Precondition Synthesis for
 Compiler Optimizations, VMCAI'14.
|)
(set-info :category "industrial")
(set-info :status sat)
(declare-fun R_E1_V4 () Bool)
(declare-fun W_S1_V4 () Bool)
(declare-fun R_E1_V5 () Bool)
(declare-fun W_S1_V5 () Bool)
(declare-fun W_S2_V5 () Bool)
(declare-fun W_S2_V2 () Bool)
(declare-fun W_S2_V3 () Bool)
(declare-fun W_S2_V1 () Bool)
(declare-fun R_S2_V4 () Bool)
(declare-fun R_S2_V5 () Bool)
(declare-fun R_S2_V2 () Bool)
(declare-fun R_S2_V3 () Bool)
(declare-fun R_S2_V1 () Bool)
(declare-fun R_S1_V4 () Bool)
(declare-fun R_S1_V5 () Bool)
(declare-fun R_S1_V2 () Bool)
(declare-fun R_S1_V3 () Bool)
(declare-fun R_S1_V1 () Bool)
(declare-fun R_E1_V2 () Bool)
(declare-fun DISJ_W_S2_R_E1 () Bool)
(declare-fun DISJ_W_S2_R_S2 () Bool)
(declare-fun DISJ_W_S2_R_S1 () Bool)
(declare-fun DISJ_W_S1_W_S2 () Bool)
(declare-fun R_E1_V3 () Bool)
(declare-fun DISJ_W_S1_R_S2 () Bool)
(declare-fun DISJ_W_S1_R_S1 () Bool)
(declare-fun W_S2_V4 () Bool)
(declare-fun W_S1_V3 () Bool)
(declare-fun W_S1_V2 () Bool)
(declare-fun W_S1_V1 () Bool)
(declare-fun R_E1_V1 () Bool)
(declare-fun DISJ_W_S1_R_E1 () Bool)
(assert
 (let
 (($x6721
   (forall
    ((V3_0 Int) (V2_0 Int) 
     (V5_0 Int) (V4_0 Int) 
     (MW_S1_V1 Bool) (MW_S1_V3 Bool) 
     (MW_S1_V2 Bool) (MW_S1_V5 Bool) 
     (MW_S1_V4 Bool) (MW_S2_V1 Bool) 
     (MW_S2_V3 Bool) (MW_S2_V2 Bool) 
     (MW_S2_V5 Bool) (MW_S2_V4 Bool) 
     (S1_V1_!6074 Int) (S1_V1_!6084 Int) 
     (S1_V1_!6095 Int) (S1_V1_!6100 Int) 
     (S2_V5_!6082 Int) (S2_V5_!6092 Int) 
     (S2_V5_!6109 Int) (S2_V5_!6114 Int) 
     (S1_V3_!6075 Int) (S1_V3_!6085 Int) 
     (S1_V3_!6096 Int) (S1_V3_!6101 Int) 
     (S1_V2_!6076 Int) (S1_V2_!6086 Int) 
     (S1_V2_!6097 Int) (S1_V2_!6102 Int) 
     (E1_!6073 Int) (E1_!6094 Int) 
     (E1_!6105 Int) (S2_V4_!6083 Int) 
     (S2_V4_!6093 Int) (S2_V4_!6110 Int) 
     (S2_V4_!6115 Int) (S1_V5_!6077 Int) 
     (S1_V5_!6087 Int) (S1_V5_!6098 Int) 
     (S1_V5_!6103 Int) (S2_V1_!6079 Int) 
     (S2_V1_!6089 Int) (S2_V1_!6106 Int) 
     (S2_V1_!6111 Int) (S1_V4_!6078 Int) 
     (S1_V4_!6088 Int) (S1_V4_!6099 Int) 
     (S1_V4_!6104 Int) (S2_V2_!6081 Int) 
     (S2_V2_!6091 Int) (S2_V2_!6108 Int) 
     (S2_V2_!6113 Int) (S2_V3_!6080 Int) 
     (S2_V3_!6090 Int) (S2_V3_!6107 Int) 
     (S2_V3_!6112 Int))
    (let
    (($x3661
      (=
      (ite MW_S2_V4 S2_V4_!6093
      (ite MW_S1_V4 S1_V4_!6088
      (ite MW_S2_V4 S2_V4_!6083 (ite MW_S1_V4 S1_V4_!6078 V4_0))))
      (ite MW_S2_V4 S2_V4_!6115 (ite MW_S1_V4 S1_V4_!6104 V4_0)))))
    (let
    (($x3415
      (=
      (ite MW_S2_V5 S2_V5_!6092
      (ite MW_S1_V5 S1_V5_!6087
      (ite MW_S2_V5 S2_V5_!6082 (ite MW_S1_V5 S1_V5_!6077 V5_0))))
      (ite MW_S2_V5 S2_V5_!6114 (ite MW_S1_V5 S1_V5_!6103 V5_0)))))
    (let
    (($x4301
      (=
      (ite MW_S2_V2 S2_V2_!6091
      (ite MW_S1_V2 S1_V2_!6086
      (ite MW_S2_V2 S2_V2_!6081 (ite MW_S1_V2 S1_V2_!6076 V2_0))))
      (ite MW_S2_V2 S2_V2_!6113 (ite MW_S1_V2 S1_V2_!6102 V2_0)))))
    (let
    (($x4295
      (=
      (ite MW_S2_V3 S2_V3_!6090
      (ite MW_S1_V3 S1_V3_!6085
      (ite MW_S2_V3 S2_V3_!6080 (ite MW_S1_V3 S1_V3_!6075 V3_0))))
      (ite MW_S2_V3 S2_V3_!6112 (ite MW_S1_V3 S1_V3_!6101 V3_0)))))
    (let ((?x4318 (ite MW_S1_V1 S1_V1_!6074 E1_!6073)))
    (let ((?x4344 (ite MW_S2_V1 S2_V1_!6079 ?x4318)))
    (let ((?x4361 (+ 1 ?x4344)))
    (let ((?x4363 (ite MW_S1_V1 S1_V1_!6084 ?x4361)))
    (let
    (($x3605
      (= (ite MW_S2_V1 S2_V1_!6089 ?x4363)
      (ite MW_S2_V1 S2_V1_!6111 (+ 1 (ite MW_S2_V1 S2_V1_!6106 E1_!6105))))))
    (let
    (($x4142
      (>=
      (ite MW_S2_V1 S2_V1_!6111 (+ 1 (ite MW_S2_V1 S2_V1_!6106 E1_!6105)))
      (+ (- 1) (ite MW_S2_V2 S2_V2_!6113 (ite MW_S1_V2 S1_V2_!6102 V2_0))))))
    (let ((?x4285 (ite MW_S2_V1 S2_V1_!6106 E1_!6105)))
    (let ((?x4286 (+ 1 ?x4285)))
    (let ((?x3992 (ite MW_S1_V2 S1_V2_!6102 V2_0)))
    (let ((?x3972 (ite MW_S2_V2 S2_V2_!6108 ?x3992)))
    (let
    ((?x2693
      (+ (- 1)
      (ite MW_S2_V2 S2_V2_!6091
      (ite MW_S1_V2 S1_V2_!6086
      (ite MW_S2_V2 S2_V2_!6081 (ite MW_S1_V2 S1_V2_!6076 V2_0)))))))
    (let
    (($x2771
      (and (not (<= V2_0 E1_!6073))
      (not
      (<= (ite MW_S2_V2 S2_V2_!6081 (ite MW_S1_V2 S1_V2_!6076 V2_0)) ?x4361))
      (>= (ite MW_S2_V1 S2_V1_!6089 ?x4363) ?x2693) 
      (not (<= V2_0 E1_!6094))
      (not
      (<= (ite MW_S1_V2 S1_V2_!6097 V2_0)
      (+ 1 (ite MW_S1_V1 S1_V1_!6095 E1_!6094))))
      (>=
      (ite MW_S1_V1 S1_V1_!6100 (+ 1 (ite MW_S1_V1 S1_V1_!6095 E1_!6094)))
      (+ (- 1) ?x3992)) (not (<= ?x3992 E1_!6105)) 
      (not (<= ?x3972 ?x4286)) $x4142)))
    (let ((?x3445 (ite MW_S1_V4 S1_V4_!6078 V4_0)))
    (let ((?x2992 (ite MW_S2_V4 S2_V4_!6083 ?x3445)))
    (let ((?x3630 (ite MW_S1_V4 S1_V4_!6088 ?x2992)))
    (let ((?x3611 (ite MW_S1_V4 S1_V4_!6104 V4_0)))
    (let ((?x2909 (ite MW_S2_V4 S2_V4_!6110 ?x3611)))
    (let (($x223 (not R_S2_V4)))
    (let ((?x3253 (ite MW_S1_V5 S1_V5_!6077 V5_0)))
    (let ((?x2971 (ite MW_S2_V5 S2_V5_!6082 ?x3253)))
    (let ((?x3663 (ite MW_S1_V5 S1_V5_!6087 ?x2971)))
    (let ((?x3703 (ite MW_S1_V5 S1_V5_!6103 V5_0)))
    (let ((?x3584 (ite MW_S2_V5 S2_V5_!6109 ?x3703)))
    (let (($x221 (not R_S2_V5)))
    (let (($x219 (not R_S2_V2)))
    (let
    (($x2686
      (or $x219
      (= ?x3972
      (ite MW_S1_V2 S1_V2_!6086
      (ite MW_S2_V2 S2_V2_!6081 (ite MW_S1_V2 S1_V2_!6076 V2_0)))))))
    (let ((?x4224 (ite MW_S1_V3 S1_V3_!6075 V3_0)))
    (let ((?x2662 (ite MW_S2_V3 S2_V3_!6080 ?x4224)))
    (let ((?x3676 (ite MW_S1_V3 S1_V3_!6085 ?x2662)))
    (let ((?x4246 (ite MW_S1_V3 S1_V3_!6101 V3_0)))
    (let ((?x2838 (ite MW_S2_V3 S2_V3_!6107 ?x4246)))
    (let (($x217 (not R_S2_V3)))
    (let
    (($x3278
      (and (or (not R_S2_V1) (= ?x4285 (+ (- 1) ?x4363)))
      (or $x217 (= ?x2838 ?x3676)) $x2686 
      (or $x221 (= ?x3584 ?x3663)) 
      (or $x223 (= ?x2909 ?x3630)))))
    (let (($x2872 (not $x3278)))
    (let
    (($x3491
      (and (or (not R_S2_V1) (= ?x4285 (+ (- 1) ?x4318)))
      (or $x217 (= ?x2838 ?x4224))
      (or $x219 (= ?x3972 (ite MW_S1_V2 S1_V2_!6076 V2_0)))
      (or $x221 (= ?x3584 ?x3253)) 
      (or $x223 (= ?x2909 ?x3445)))))
    (let
    (($x2830
      (and (or (not R_S2_V1) (= E1_!6105 ?x4286))
      (or $x217 (= ?x4246 ?x2838)) 
      (or $x219 (= ?x3992 ?x3972)) 
      (or $x221 (= ?x3703 ?x3584)) 
      (or $x223 (= ?x3611 ?x2909)))))
    (let
    (($x2466
      (or $x219
      (= ?x3992
      (ite MW_S1_V2 S1_V2_!6086
      (ite MW_S2_V2 S2_V2_!6081 (ite MW_S1_V2 S1_V2_!6076 V2_0)))))))
    (let
    (($x2710
      (and (or (not R_S2_V1) (= E1_!6105 ?x4363))
      (or $x217 (= ?x4246 ?x3676)) $x2466 
      (or $x221 (= ?x3703 ?x3663)) 
      (or $x223 (= ?x3611 ?x3630)))))
    (let
    (($x3029
      (and (or (not R_S2_V1) (= E1_!6105 ?x4318))
      (or $x217 (= ?x4246 ?x4224))
      (or $x219 (= ?x3992 (ite MW_S1_V2 S1_V2_!6076 V2_0)))
      (or $x221 (= ?x3703 ?x3253)) 
      (or $x223 (= ?x3611 ?x3445)))))
    (let ((?x3569 (ite MW_S1_V2 S1_V2_!6076 V2_0)))
    (let ((?x4085 (ite MW_S2_V2 S2_V2_!6081 ?x3569)))
    (let ((?x3902 (ite MW_S1_V2 S1_V2_!6086 ?x4085)))
    (let
    (($x2201
      (and (or (not R_S2_V1) (= ?x4363 ?x4318)) 
      (or $x217 (= ?x3676 ?x4224)) 
      (or $x219 (= ?x3902 ?x3569)) 
      (or $x221 (= ?x3663 ?x3253)) 
      (or $x223 (= ?x3630 ?x3445)))))
    (let
    (($x2950
      (and (or (not R_S2_V1) (= ?x4285 (+ (- 1) E1_!6105)))
      (or $x217 (= ?x2838 ?x4246)) 
      (or $x219 (= ?x3972 ?x3992)) 
      (or $x221 (= ?x3584 ?x3703)) 
      (or $x223 (= ?x2909 ?x3611)))))
    (let (($x2881 (not $x2950)))
    (let
    (($x3113
      (and (or (not R_S2_V1) (= ?x4363 E1_!6105))
      (or $x217 (= ?x3676 ?x4246)) 
      (or $x219 (= ?x3902 ?x3992)) 
      (or $x221 (= ?x3663 ?x3703)) 
      (or $x223 (= ?x3630 ?x3611)))))
    (let (($x2916 (not $x3113)))
    (let
    (($x2724
      (and (or (not R_S2_V1) (= ?x4318 ?x4286)) 
      (or $x217 (= ?x4224 ?x2838)) 
      (or $x219 (= ?x3569 ?x3972)) 
      (or $x221 (= ?x3253 ?x3584)) 
      (or $x223 (= ?x3445 ?x2909)))))
    (let (($x2699 (not $x2724)))
    (let
    (($x2728
      (and (or (not R_S2_V1) (= ?x4318 E1_!6105))
      (or $x217 (= ?x4224 ?x4246)) 
      (or $x219 (= ?x3569 ?x3992)) 
      (or $x221 (= ?x3253 ?x3703)) 
      (or $x223 (= ?x3445 ?x3611)))))
    (let (($x2684 (not $x2728)))
    (let
    (($x3323
      (and (or (not R_S2_V1) (= ?x4318 ?x4363)) 
      (or $x217 (= ?x4224 ?x3676)) 
      (or $x219 (= ?x3569 ?x3902)) 
      (or $x221 (= ?x3253 ?x3663)) 
      (or $x223 (= ?x3445 ?x3630)))))
    (let (($x2200 (not $x3323)))
    (let
    (($x2953
      (and (or (not R_S1_V1) (= (ite MW_S1_V1 S1_V1_!6095 E1_!6094) ?x4344))
      (or (not R_S1_V3) (= (ite MW_S1_V3 S1_V3_!6096 V3_0) ?x2662))
      (or (not R_S1_V2) (= (ite MW_S1_V2 S1_V2_!6097 V2_0) ?x4085))
      (or (not R_S1_V5) (= (ite MW_S1_V5 S1_V5_!6098 V5_0) ?x2971))
      (or (not R_S1_V4) (= (ite MW_S1_V4 S1_V4_!6099 V4_0) ?x2992)))))
    (let
    (($x3562
      (and
      (or (not R_S1_V1)
      (= (ite MW_S1_V1 S1_V1_!6095 E1_!6094) (+ (- 1) E1_!6073)))
      (or (not R_S1_V3) (= (ite MW_S1_V3 S1_V3_!6096 V3_0) V3_0))
      (or (not R_S1_V2) (= (ite MW_S1_V2 S1_V2_!6097 V2_0) V2_0))
      (or (not R_S1_V5) (= (ite MW_S1_V5 S1_V5_!6098 V5_0) V5_0))
      (or (not R_S1_V4) (= (ite MW_S1_V4 S1_V4_!6099 V4_0) V4_0)))))
    (let (($x3148 (not $x3562)))
    (let
    (($x2891
      (and
      (or (not R_S1_V1)
      (= E1_!6094 (+ 1 (ite MW_S1_V1 S1_V1_!6095 E1_!6094))))
      (or (not R_S1_V3) (= V3_0 (ite MW_S1_V3 S1_V3_!6096 V3_0)))
      (or (not R_S1_V2) (= V2_0 (ite MW_S1_V2 S1_V2_!6097 V2_0)))
      (or (not R_S1_V5) (= V5_0 (ite MW_S1_V5 S1_V5_!6098 V5_0)))
      (or (not R_S1_V4) (= V4_0 (ite MW_S1_V4 S1_V4_!6099 V4_0))))))
    (let (($x2440 (not $x2891)))
    (let
    (($x3020
      (and (or (not R_S1_V1) (= E1_!6094 ?x4361))
      (or (not R_S1_V3) (= V3_0 ?x2662)) 
      (or (not R_S1_V2) (= V2_0 ?x4085)) 
      (or (not R_S1_V5) (= V5_0 ?x2971)) 
      (or (not R_S1_V4) (= V4_0 ?x2992)))))
    (let
    (($x3928
      (and (or (not R_S1_V1) (= ?x4344 (+ (- 1) E1_!6073)))
      (or (not R_S1_V3) (= ?x2662 V3_0)) 
      (or (not R_S1_V2) (= ?x4085 V2_0)) 
      (or (not R_S1_V5) (= ?x2971 V5_0)) 
      (or (not R_S1_V4) (= ?x2992 V4_0)))))
    (let (($x3974 (not $x3928)))
    (let
    (($x2697
      (and (or (not R_S2_V1) (= ?x4363 ?x4286)) 
      (or $x217 (= ?x3676 ?x2838)) 
      (or $x219 (= ?x3902 ?x3972)) 
      (or $x221 (= ?x3663 ?x3584)) 
      (or $x223 (= ?x3630 ?x2909)))))
    (let
    (($x2969
      (and
      (or (not R_S1_V1)
      (= (ite MW_S1_V1 S1_V1_!6095 E1_!6094) (+ (- 1) E1_!6094)))
      (or (not R_S1_V3) (= (ite MW_S1_V3 S1_V3_!6096 V3_0) V3_0))
      (or (not R_S1_V2) (= (ite MW_S1_V2 S1_V2_!6097 V2_0) V2_0))
      (or (not R_S1_V5) (= (ite MW_S1_V5 S1_V5_!6098 V5_0) V5_0))
      (or (not R_S1_V4) (= (ite MW_S1_V4 S1_V4_!6099 V4_0) V4_0)))))
    (let
    (($x3217
      (and (or (not R_S1_V1) (= E1_!6073 ?x4361))
      (or (not R_S1_V3) (= V3_0 ?x2662)) 
      (or (not R_S1_V2) (= V2_0 ?x4085)) 
      (or (not R_S1_V5) (= V5_0 ?x2971)) 
      (or (not R_S1_V4) (= V4_0 ?x2992)))))
    (let
    (($x4050
      (and (or (not R_E1_V2) (= ?x3992 V2_0))
      (or (not R_E1_V5) (= ?x3703 V5_0)) 
      (or (not R_E1_V4) (= ?x3611 V4_0)))))
    (let
    (($x2893
      (and (or (not R_E1_V2) (= V2_0 ?x3992))
      (or (not R_E1_V5) (= V5_0 ?x3703)) 
      (or (not R_E1_V4) (= V4_0 ?x3611)))))
    (let
    (($x3553
      (and (or (not R_S1_V1) (= ?x4344 (ite MW_S1_V1 S1_V1_!6095 E1_!6094)))
      (or (not R_S1_V3) (= ?x2662 (ite MW_S1_V3 S1_V3_!6096 V3_0)))
      (or (not R_S1_V2) (= ?x4085 (ite MW_S1_V2 S1_V2_!6097 V2_0)))
      (or (not R_S1_V5) (= ?x2971 (ite MW_S1_V5 S1_V5_!6098 V5_0)))
      (or (not R_S1_V4) (= ?x2992 (ite MW_S1_V4 S1_V4_!6099 V4_0))))))
    (let (($x3213 (not $x3553)))
    (let
    (($x2568
      (and (or (not R_S1_V1) (= ?x4344 (+ (- 1) E1_!6094)))
      (or (not R_S1_V3) (= ?x2662 V3_0)) 
      (or (not R_S1_V2) (= ?x4085 V2_0)) 
      (or (not R_S1_V5) (= ?x2971 V5_0)) 
      (or (not R_S1_V4) (= ?x2992 V4_0)))))
    (let (($x2610 (not $x2568)))
    (let
    (($x3368
      (and
      (or (not R_S1_V1)
      (= E1_!6073 (+ 1 (ite MW_S1_V1 S1_V1_!6095 E1_!6094))))
      (or (not R_S1_V3) (= V3_0 (ite MW_S1_V3 S1_V3_!6096 V3_0)))
      (or (not R_S1_V2) (= V2_0 (ite MW_S1_V2 S1_V2_!6097 V2_0)))
      (or (not R_S1_V5) (= V5_0 (ite MW_S1_V5 S1_V5_!6098 V5_0)))
      (or (not R_S1_V4) (= V4_0 (ite MW_S1_V4 S1_V4_!6099 V4_0))))))
    (let
    (($x4376
      (and (or (not $x3368) (= S1_V1_!6074 S1_V1_!6100))
      (or $x3974 (= S1_V1_!6084 S1_V1_!6074))
      (or $x2610 (= S1_V1_!6084 S1_V1_!6095))
      (or $x3213 (= S1_V1_!6084 S1_V1_!6100))
      (or (not (or (not R_S1_V1) (= E1_!6094 E1_!6073)))
      (= S1_V1_!6095 S1_V1_!6074)) 
      (or $x2440 (= S1_V1_!6095 S1_V1_!6100))
      (or $x2684 (= S2_V5_!6082 S2_V5_!6109))
      (or $x2699 (= S2_V5_!6082 S2_V5_!6114))
      (or (not $x2201) (= S2_V5_!6092 S2_V5_!6082))
      (or $x2916 (= S2_V5_!6092 S2_V5_!6109))
      (or (not $x2697) (= S2_V5_!6092 S2_V5_!6114))
      (or $x2881 (= S2_V5_!6114 S2_V5_!6109))
      (or (not (or (not R_S1_V1) (= E1_!6073 E1_!6094)))
      (= S1_V3_!6075 S1_V3_!6096)) 
      (or $x3974 (= S1_V3_!6085 S1_V3_!6075))
      (or $x2610 (= S1_V3_!6085 S1_V3_!6096))
      (or $x3213 (= S1_V3_!6085 S1_V3_!6101))
      (or $x3148 (= S1_V3_!6101 S1_V3_!6075))
      (or (not $x2969) (= S1_V3_!6101 S1_V3_!6096))
      (or (not $x3368) (= S1_V2_!6076 S1_V2_!6102))
      (or $x3974 (= S1_V2_!6086 S1_V2_!6076))
      (or $x2610 (= S1_V2_!6086 S1_V2_!6097))
      (or $x3213 (= S1_V2_!6086 S1_V2_!6102))
      (or (not (or (not R_S1_V1) (= E1_!6094 E1_!6073)))
      (= S1_V2_!6097 S1_V2_!6076)) 
      (or $x2440 (= S1_V2_!6097 S1_V2_!6102)) 
      (= E1_!6073 E1_!6094) 
      (or (not $x2893) (= E1_!6073 E1_!6105))
      (or (not $x4050) (= E1_!6105 E1_!6094))
      (or $x2200 (= S2_V4_!6083 S2_V4_!6093))
      (or $x2684 (= S2_V4_!6083 S2_V4_!6110))
      (or (not $x2710) (= S2_V4_!6110 S2_V4_!6093))
      (or (not $x3491) (= S2_V4_!6115 S2_V4_!6083))
      (or $x2872 (= S2_V4_!6115 S2_V4_!6093))
      (or $x2881 (= S2_V4_!6115 S2_V4_!6110))
      (or (not $x3217) (= S1_V5_!6077 S1_V5_!6087))
      (or (not (or (not R_S1_V1) (= E1_!6073 E1_!6094)))
      (= S1_V5_!6077 S1_V5_!6098))
      (or (not $x3020) (= S1_V5_!6098 S1_V5_!6087))
      (or $x3148 (= S1_V5_!6103 S1_V5_!6077))
      (or (not $x2953) (= S1_V5_!6103 S1_V5_!6087))
      (or (not $x2969) (= S1_V5_!6103 S1_V5_!6098))
      (or $x2200 (= S2_V1_!6079 S2_V1_!6089))
      (or $x2684 (= S2_V1_!6079 S2_V1_!6106))
      (or $x2699 (= S2_V1_!6079 S2_V1_!6111))
      (or $x2916 (= S2_V1_!6089 S2_V1_!6106))
      (or (not $x2697) (= S2_V1_!6089 S2_V1_!6111))
      (or $x2881 (= S2_V1_!6111 S2_V1_!6106))
      (or $x3974 (= S1_V4_!6088 S1_V4_!6078))
      (or (not (or (not R_S1_V1) (= E1_!6094 E1_!6073)))
      (= S1_V4_!6099 S1_V4_!6078))
      (or (not $x3020) (= S1_V4_!6099 S1_V4_!6088))
      (or $x2440 (= S1_V4_!6099 S1_V4_!6104))
      (or $x3148 (= S1_V4_!6104 S1_V4_!6078))
      (or (not $x2953) (= S1_V4_!6104 S1_V4_!6088))
      (or $x2200 (= S2_V2_!6081 S2_V2_!6091))
      (or $x2684 (= S2_V2_!6081 S2_V2_!6108))
      (or $x2699 (= S2_V2_!6081 S2_V2_!6113))
      (or $x2916 (= S2_V2_!6091 S2_V2_!6108))
      (or $x2872 (= S2_V2_!6113 S2_V2_!6091))
      (or $x2881 (= S2_V2_!6113 S2_V2_!6108))
      (or (not $x2201) (= S2_V3_!6090 S2_V3_!6080))
      (or (not $x3029) (= S2_V3_!6107 S2_V3_!6080))
      (or (not $x2710) (= S2_V3_!6107 S2_V3_!6090))
      (or (not $x2830) (= S2_V3_!6107 S2_V3_!6112))
      (or (not $x3491) (= S2_V3_!6112 S2_V3_!6080))
      (or $x2872 (= S2_V3_!6112 S2_V3_!6090)) 
      (not MW_S1_V1) (not MW_S1_V2) 
      (or (not MW_S1_V5) W_S1_V5) 
      (or (not MW_S1_V4) W_S1_V4) 
      (or (not MW_S2_V1) W_S2_V1) 
      (or (not MW_S2_V3) W_S2_V3) 
      (or (not MW_S2_V2) W_S2_V2) 
      (or (not MW_S2_V5) W_S2_V5))))
    (or (not $x4376) (not $x2771) (and $x3605 $x4295 $x4301 $x3415 $x3661)))))))))))))))))))))))))))))))))))))))))))))))))))))))))))))))))))))))))))))))))
 (let
 (($x6571 (not (or (and W_S2_V2 R_E1_V2) (and W_S2_V5 R_E1_V5) R_E1_V4))))
 (let
 (($x113
   (or (and W_S2_V1 R_S2_V1) 
   (and W_S2_V3 R_S2_V3) (and W_S2_V2 R_S2_V2) 
   (and W_S2_V5 R_S2_V5) R_S2_V4)))
 (let (($x115 (= DISJ_W_S2_R_S2 (not $x113))))
 (let
 (($x110
   (or (and W_S2_V1 R_S1_V1) 
   (and W_S2_V3 R_S1_V3) (and W_S2_V2 R_S1_V2) 
   (and W_S2_V5 R_S1_V5) R_S1_V4)))
 (let (($x112 (= DISJ_W_S2_R_S1 (not $x110))))
 (let
 (($x2462
   (= DISJ_W_S1_W_S2 (not (or W_S2_V3 (and W_S1_V5 W_S2_V5) W_S1_V4)))))
 (let (($x152 (not R_E1_V3)))
 (let
 (($x2885 (not (or R_S2_V3 (and W_S1_V5 R_S2_V5) (and W_S1_V4 R_S2_V4)))))
 (let
 (($x2970 (not (or R_S1_V3 (and W_S1_V5 R_S1_V5) (and W_S1_V4 R_S1_V4)))))
 (let (($x2267 (not W_S2_V5)))
 (let (($x2259 (not W_S2_V2)))
 (let (($x217 (not R_S2_V3)))
 (let (($x215 (not R_S2_V1)))
 (let
 (($x6609
   (or (and DISJ_W_S2_R_S1 DISJ_W_S2_R_S2) 
   (and $x2259 DISJ_W_S2_R_S2) 
   (and DISJ_W_S1_R_S2 DISJ_W_S2_R_S1)
   (and $x217 (not R_S2_V4) $x2267 DISJ_W_S2_R_S1) 
   (and (not W_S2_V1) $x2259) 
   (and $x217 (not W_S1_V4) $x2267 DISJ_W_S2_R_S1)
   (and DISJ_W_S1_W_S2 DISJ_W_S2_R_S1)
   (and (not R_S2_V4) $x2267 (not W_S2_V3) DISJ_W_S2_R_S1)
   (and (not R_S2_V4) (not W_S1_V5) (not W_S2_V3) DISJ_W_S2_R_S1)
   (and (not R_S2_V5) (not R_S2_V4) (not W_S2_V3) DISJ_W_S2_R_S1)
   (and (not R_S2_V5) (not W_S1_V4) (not W_S2_V3) DISJ_W_S2_R_S1)
   (and $x215 $x217 (not R_S2_V4) $x2259 DISJ_W_S2_R_S1)
   (and $x215 (not R_S2_V4) $x2259 (not W_S2_V3) DISJ_W_S2_R_S1)
   (and $x215 (not R_S2_V5) (not R_S2_V4) $x2259 DISJ_W_S2_R_S1)
   (and $x215 (not R_S2_V4) $x2259 $x2267 DISJ_W_S2_R_S1)
   (and $x215 $x217 (not R_S2_V5) $x2259 DISJ_W_S2_R_S1)
   (and $x215 $x2259 $x2267 (not W_S2_V3) DISJ_W_S2_R_S1)
   (and $x215 (not R_S2_V5) $x2259 (not W_S2_V3) DISJ_W_S2_R_S1)
   (and $x215 $x217 $x2259 $x2267 DISJ_W_S2_R_S1))))
 (let
 (($x3621
   (or (and $x2259 DISJ_W_S2_R_S1 DISJ_W_S1_R_S1) 
   (and (not W_S2_V1) $x2259) 
   (and (not R_S1_V1) DISJ_W_S1_R_S1))))
 (let (($x2209 (not W_S1_V2)))
 (let (($x2206 (not W_S1_V1)))
 (let (($x150 (not R_E1_V1)))
 (and DISJ_W_S1_R_E1 $x150 $x2206 $x2209 $x3621 $x6609 W_S1_V3 W_S2_V4
 (= DISJ_W_S1_R_S1 $x2970) 
 (= DISJ_W_S1_R_S2 $x2885) $x152 $x2462 $x112 $x115 
 (= DISJ_W_S2_R_E1 $x6571) $x6721 
 (not (and W_S1_V5 R_E1_V5)) 
 (not (and W_S1_V4 R_E1_V4)))))))))))))))))))))))
(check-sat)
(exit)

